p cnf 15 44
1 4 7 10 13 0
2 5 8 11 14 0
3 6 9 12 15 0
1 2 3 0
-1 -2 0
-2 -3 0
-3 -1 0
-1 -7 0
-2 -8 0
-3 -9 0
4 5 6 0
-4 -5 0
-5 -6 0
-6 -4 0
-4 -8 0
-4 -9 0
-5 -7 0
-5 -9 0
-6 -7 0
-6 -8 0
-4 -13 0
-5 -14 0
-6 -15 0
7 8 9 0
-7 -8 0
-8 -9 0
-9 -7 0
-7 -13 0
-8 -14 0
-9 -15 0
10 11 12 0
-10 -11 0
-11 -12 0
-12 -10 0
-10 -14 0
-10 -15 0
-11 -13 0
-11 -15 0
-12 -13 0
-12 -14 0
13 14 15 0
-13 -14 0
-14 -15 0
-15 -13 0
